p cnf 200 1110
-101 -53 0
-101 10 0
-101 -97 0
-101 -51 0
-101 37 0
-101 44 0
-101 32 0
-101 -43 0
-101 -8 0
-101 79 0
101 53 -10 97 51 -37 -44 -32 43 8 -79 0
-102 98 0
-102 -30 0
-102 29 0
-102 -63 0
-102 -68 0
-102 -90 0
-102 -54 0
-102 -77 0
-102 40 0
-102 96 0
102 -98 30 -29 63 68 90 54 77 -40 -96 0
-103 -38 0
-103 1 0
-103 -54 0
-103 67 0
-103 6 0
-103 -78 0
-103 61 0
-103 80 0
-103 65 0
-103 -90 0
103 38 -1 54 -67 -6 78 -61 -80 -65 90 0
-104 4 0
-104 17 0
-104 -90 0
-104 88 0
-104 95 0
-104 -64 0
-104 38 0
-104 -55 0
-104 33 0
-104 22 0
104 -4 -17 90 -88 -95 64 -38 55 -33 -22 0
-105 -92 0
-105 -90 0
-105 17 0
-105 18 0
-105 -59 0
-105 44 0
-105 -16 0
-105 85 0
-105 35 0
-105 27 0
105 92 90 -17 -18 59 -44 16 -85 -35 -27 0
-106 91 0
-106 70 0
-106 53 0
-106 75 0
-106 -66 0
-106 17 0
-106 -38 0
-106 85 0
-106 29 0
-106 -41 0
106 -91 -70 -53 -75 66 -17 38 -85 -29 41 0
-107 81 0
-107 -1 0
-107 75 0
-107 -44 0
-107 -27 0
-107 82 0
-107 71 0
-107 -91 0
-107 3 0
-107 -11 0
107 -81 1 -75 44 27 -82 -71 91 -3 11 0
-108 68 0
-108 -64 0
-108 8 0
-108 50 0
-108 90 0
-108 -57 0
-108 72 0
-108 -78 0
-108 25 0
-108 -28 0
108 -68 64 -8 -50 -90 57 -72 78 -25 28 0
-109 -52 0
-109 93 0
-109 87 0
-109 26 0
-109 -76 0
-109 -32 0
-109 -8 0
-109 -90 0
-109 -81 0
-109 36 0
109 52 -93 -87 -26 76 32 8 90 81 -36 0
-110 -43 0
-110 65 0
-110 -75 0
-110 -5 0
-110 -63 0
-110 -13 0
-110 15 0
-110 -61 0
-110 -56 0
-110 -17 0
110 43 -65 75 5 63 13 -15 61 56 17 0
101 102 103 104 105 106 107 108 109 110 0
-111 -20 0
-111 -34 0
-111 -75 0
-111 72 0
-111 -24 0
-111 -17 0
-111 36 0
-111 -30 0
-111 -12 0
-111 -63 0
111 20 34 75 -72 24 17 -36 30 12 63 0
-112 18 0
-112 91 0
-112 22 0
-112 1 0
-112 -53 0
-112 -11 0
-112 -13 0
-112 -15 0
-112 42 0
-112 69 0
112 -18 -91 -22 -1 53 11 13 15 -42 -69 0
-113 -55 0
-113 -43 0
-113 -62 0
-113 93 0
-113 -95 0
-113 86 0
-113 71 0
-113 31 0
-113 70 0
-113 -63 0
113 55 43 62 -93 95 -86 -71 -31 -70 63 0
-114 -6 0
-114 -31 0
-114 99 0
-114 -97 0
-114 25 0
-114 24 0
-114 9 0
-114 -19 0
-114 -21 0
-114 44 0
114 6 31 -99 97 -25 -24 -9 19 21 -44 0
-115 89 0
-115 -59 0
-115 -46 0
-115 -87 0
-115 83 0
-115 -85 0
-115 19 0
-115 77 0
-115 56 0
-115 55 0
115 -89 59 46 87 -83 85 -19 -77 -56 -55 0
-116 45 0
-116 -23 0
-116 -22 0
-116 4 0
-116 -89 0
-116 -54 0
-116 16 0
-116 -98 0
-116 -96 0
-116 57 0
116 -45 23 22 -4 89 54 -16 98 96 -57 0
-117 -61 0
-117 -74 0
-117 -76 0
-117 -12 0
-117 42 0
-117 64 0
-117 18 0
-117 -28 0
-117 70 0
-117 22 0
117 61 74 76 12 -42 -64 -18 28 -70 -22 0
-118 30 0
-118 -67 0
-118 -71 0
-118 -100 0
-118 -4 0
-118 54 0
-118 96 0
-118 -14 0
-118 -51 0
-118 -69 0
118 -30 67 71 100 4 -54 -96 14 51 69 0
-119 -6 0
-119 34 0
-119 -10 0
-119 19 0
-119 93 0
-119 81 0
-119 -13 0
-119 -21 0
-119 -53 0
-119 95 0
119 6 -34 10 -19 -93 -81 13 21 53 -95 0
-120 -43 0
-120 69 0
-120 -11 0
-120 85 0
-120 19 0
-120 84 0
-120 52 0
-120 -65 0
-120 79 0
-120 -86 0
120 43 -69 11 -85 -19 -84 -52 65 -79 86 0
111 112 113 114 115 116 117 118 119 120 0
-121 81 0
-121 12 0
-121 99 0
-121 14 0
-121 -48 0
-121 80 0
-121 -65 0
-121 47 0
-121 -50 0
-121 43 0
121 -81 -12 -99 -14 48 -80 65 -47 50 -43 0
-122 1 0
-122 -43 0
-122 -4 0
-122 5 0
-122 9 0
-122 -86 0
-122 77 0
-122 -95 0
-122 35 0
-122 -25 0
122 -1 43 4 -5 -9 86 -77 95 -35 25 0
-123 -24 0
-123 -79 0
-123 -44 0
-123 78 0
-123 -50 0
-123 -49 0
-123 88 0
-123 -38 0
-123 98 0
-123 54 0
123 24 79 44 -78 50 49 -88 38 -98 -54 0
-124 62 0
-124 85 0
-124 34 0
-124 -89 0
-124 -63 0
-124 -6 0
-124 -41 0
-124 54 0
-124 23 0
-124 56 0
124 -62 -85 -34 89 63 6 41 -54 -23 -56 0
-125 -93 0
-125 -16 0
-125 41 0
-125 -21 0
-125 84 0
-125 -4 0
-125 22 0
-125 96 0
-125 57 0
-125 -27 0
125 93 16 -41 21 -84 4 -22 -96 -57 27 0
-126 86 0
-126 32 0
-126 13 0
-126 -46 0
-126 64 0
-126 1 0
-126 83 0
-126 -20 0
-126 -35 0
-126 -44 0
126 -86 -32 -13 46 -64 -1 -83 20 35 44 0
-127 6 0
-127 13 0
-127 19 0
-127 -83 0
-127 55 0
-127 -11 0
-127 20 0
-127 80 0
-127 46 0
-127 -69 0
127 -6 -13 -19 83 -55 11 -20 -80 -46 69 0
-128 64 0
-128 25 0
-128 -12 0
-128 -14 0
-128 55 0
-128 22 0
-128 31 0
-128 48 0
-128 36 0
-128 -92 0
128 -64 -25 12 14 -55 -22 -31 -48 -36 92 0
-129 95 0
-129 -91 0
-129 70 0
-129 98 0
-129 93 0
-129 -16 0
-129 -17 0
-129 -79 0
-129 -52 0
-129 61 0
129 -95 91 -70 -98 -93 16 17 79 52 -61 0
-130 24 0
-130 48 0
-130 -5 0
-130 -65 0
-130 -74 0
-130 -97 0
-130 12 0
-130 22 0
-130 -75 0
-130 57 0
130 -24 -48 5 65 74 97 -12 -22 75 -57 0
121 122 123 124 125 126 127 128 129 130 0
-131 -52 0
-131 61 0
-131 31 0
-131 -13 0
-131 35 0
-131 69 0
-131 -56 0
-131 60 0
-131 -26 0
-131 -59 0
131 52 -61 -31 13 -35 -69 56 -60 26 59 0
-132 67 0
-132 -31 0
-132 87 0
-132 69 0
-132 40 0
-132 86 0
-132 -9 0
-132 62 0
-132 -17 0
-132 -37 0
132 -67 31 -87 -69 -40 -86 9 -62 17 37 0
-133 -84 0
-133 -62 0
-133 -75 0
-133 -4 0
-133 30 0
-133 -85 0
-133 -79 0
-133 -70 0
-133 1 0
-133 -97 0
133 84 62 75 4 -30 85 79 70 -1 97 0
-134 -39 0
-134 19 0
-134 95 0
-134 87 0
-134 -4 0
-134 -79 0
-134 24 0
-134 -83 0
-134 -51 0
-134 -91 0
134 39 -19 -95 -87 4 79 -24 83 51 91 0
-135 -61 0
-135 62 0
-135 78 0
-135 -97 0
-135 92 0
-135 33 0
-135 -65 0
-135 -54 0
-135 52 0
-135 -53 0
135 61 -62 -78 97 -92 -33 65 54 -52 53 0
-136 -51 0
-136 12 0
-136 79 0
-136 85 0
-136 28 0
-136 26 0
-136 -88 0
-136 -93 0
-136 -43 0
-136 -57 0
136 51 -12 -79 -85 -28 -26 88 93 43 57 0
-137 20 0
-137 95 0
-137 87 0
-137 10 0
-137 82 0
-137 42 0
-137 -59 0
-137 -88 0
-137 -61 0
-137 85 0
137 -20 -95 -87 -10 -82 -42 59 88 61 -85 0
-138 -99 0
-138 -44 0
-138 10 0
-138 94 0
-138 -78 0
-138 -29 0
-138 17 0
-138 73 0
-138 96 0
-138 -24 0
138 99 44 -10 -94 78 29 -17 -73 -96 24 0
-139 -67 0
-139 52 0
-139 -47 0
-139 86 0
-139 2 0
-139 90 0
-139 -35 0
-139 46 0
-139 93 0
-139 -25 0
139 67 -52 47 -86 -2 -90 35 -46 -93 25 0
-140 15 0
-140 -70 0
-140 -59 0
-140 -98 0
-140 36 0
-140 -19 0
-140 41 0
-140 6 0
-140 75 0
-140 -87 0
140 -15 70 59 98 -36 19 -41 -6 -75 87 0
131 132 133 134 135 136 137 138 139 140 0
-141 42 0
-141 -76 0
-141 27 0
-141 -69 0
-141 -16 0
-141 -56 0
-141 -34 0
-141 66 0
-141 -6 0
-141 22 0
141 -42 76 -27 69 16 56 34 -66 6 -22 0
-142 -42 0
-142 52 0
-142 -87 0
-142 -47 0
-142 2 0
-142 81 0
-142 -73 0
-142 37 0
-142 -67 0
-142 98 0
142 42 -52 87 47 -2 -81 73 -37 67 -98 0
-143 -26 0
-143 55 0
-143 -93 0
-143 99 0
-143 -73 0
-143 -4 0
-143 19 0
-143 -27 0
-143 -21 0
-143 -82 0
143 26 -55 93 -99 73 4 -19 27 21 82 0
-144 21 0
-144 -42 0
-144 39 0
-144 16 0
-144 -61 0
-144 -20 0
-144 94 0
-144 18 0
-144 48 0
-144 -37 0
144 -21 42 -39 -16 61 20 -94 -18 -48 37 0
-145 -99 0
-145 -81 0
-145 91 0
-145 -57 0
-145 -98 0
-145 78 0
-145 40 0
-145 63 0
-145 -5 0
-145 -21 0
145 99 81 -91 57 98 -78 -40 -63 5 21 0
-146 -93 0
-146 -27 0
-146 -14 0
-146 68 0
-146 82 0
-146 97 0
-146 86 0
-146 87 0
-146 -64 0
-146 -77 0
146 93 27 14 -68 -82 -97 -86 -87 64 77 0
-147 -38 0
-147 87 0
-147 -50 0
-147 7 0
-147 27 0
-147 81 0
-147 52 0
-147 -98 0
-147 -91 0
-147 -33 0
147 38 -87 50 -7 -27 -81 -52 98 91 33 0
-148 -11 0
-148 -23 0
-148 -4 0
-148 81 0
-148 -54 0
-148 -84 0
-148 9 0
-148 -73 0
-148 24 0
-148 -39 0
148 11 23 4 -81 54 84 -9 73 -24 39 0
-149 -56 0
-149 -38 0
-149 -5 0
-149 -34 0
-149 -29 0
-149 13 0
-149 76 0
-149 -26 0
-149 -71 0
-149 -95 0
149 56 38 5 34 29 -13 -76 26 71 95 0
-150 -20 0
-150 66 0
-150 67 0
-150 28 0
-150 97 0
-150 83 0
-150 22 0
-150 26 0
-150 77 0
-150 -7 0
150 20 -66 -67 -28 -97 -83 -22 -26 -77 7 0
141 142 143 144 145 146 147 148 149 150 0
-151 -77 0
-151 7 0
-151 44 0
-151 -52 0
-151 -94 0
-151 55 0
-151 -20 0
-151 67 0
-151 76 0
-151 -2 0
151 77 -7 -44 52 94 -55 20 -67 -76 2 0
-152 -1 0
-152 74 0
-152 -32 0
-152 -98 0
-152 -71 0
-152 -70 0
-152 -65 0
-152 30 0
-152 72 0
-152 -95 0
152 1 -74 32 98 71 70 65 -30 -72 95 0
-153 -79 0
-153 -5 0
-153 -75 0
-153 1 0
-153 -25 0
-153 64 0
-153 41 0
-153 30 0
-153 84 0
-153 -53 0
153 79 5 75 -1 25 -64 -41 -30 -84 53 0
-154 -72 0
-154 44 0
-154 -36 0
-154 73 0
-154 -56 0
-154 45 0
-154 -18 0
-154 27 0
-154 -80 0
-154 50 0
154 72 -44 36 -73 56 -45 18 -27 80 -50 0
-155 -18 0
-155 -61 0
-155 -3 0
-155 -86 0
-155 -76 0
-155 99 0
-155 -77 0
-155 78 0
-155 45 0
-155 -100 0
155 18 61 3 86 76 -99 77 -78 -45 100 0
-156 5 0
-156 65 0
-156 -96 0
-156 62 0
-156 -98 0
-156 -95 0
-156 3 0
-156 8 0
-156 -91 0
-156 92 0
156 -5 -65 96 -62 98 95 -3 -8 91 -92 0
-157 85 0
-157 -17 0
-157 33 0
-157 -19 0
-157 43 0
-157 -91 0
-157 -18 0
-157 72 0
-157 -37 0
-157 -35 0
157 -85 17 -33 19 -43 91 18 -72 37 35 0
-158 -81 0
-158 -12 0
-158 -24 0
-158 -77 0
-158 6 0
-158 1 0
-158 -19 0
-158 -54 0
-158 65 0
-158 13 0
158 81 12 24 77 -6 -1 19 54 -65 -13 0
-159 56 0
-159 -15 0
-159 -39 0
-159 -66 0
-159 1 0
-159 64 0
-159 -22 0
-159 -40 0
-159 -89 0
-159 92 0
159 -56 15 39 66 -1 -64 22 40 89 -92 0
-160 99 0
-160 44 0
-160 54 0
-160 -37 0
-160 36 0
-160 -29 0
-160 58 0
-160 70 0
-160 33 0
-160 46 0
160 -99 -44 -54 37 -36 29 -58 -70 -33 -46 0
151 152 153 154 155 156 157 158 159 160 0
-161 55 0
-161 78 0
-161 24 0
-161 -3 0
-161 70 0
-161 -88 0
-161 -27 0
-161 32 0
-161 25 0
-161 -94 0
161 -55 -78 -24 3 -70 88 27 -32 -25 94 0
-162 69 0
-162 -24 0
-162 -51 0
-162 -10 0
-162 -86 0
-162 -73 0
-162 -34 0
-162 -67 0
-162 60 0
-162 -5 0
162 -69 24 51 10 86 73 34 67 -60 5 0
-163 17 0
-163 -13 0
-163 76 0
-163 49 0
-163 54 0
-163 68 0
-163 35 0
-163 -20 0
-163 -71 0
-163 42 0
163 -17 13 -76 -49 -54 -68 -35 20 71 -42 0
-164 62 0
-164 -67 0
-164 34 0
-164 -47 0
-164 -83 0
-164 80 0
-164 78 0
-164 9 0
-164 59 0
-164 -17 0
164 -62 67 -34 47 83 -80 -78 -9 -59 17 0
-165 64 0
-165 39 0
-165 -44 0
-165 -27 0
-165 49 0
-165 51 0
-165 -75 0
-165 -29 0
-165 61 0
-165 26 0
165 -64 -39 44 27 -49 -51 75 29 -61 -26 0
-166 -53 0
-166 -96 0
-166 39 0
-166 -3 0
-166 46 0
-166 26 0
-166 29 0
-166 -74 0
-166 66 0
-166 73 0
166 53 96 -39 3 -46 -26 -29 74 -66 -73 0
-167 70 0
-167 49 0
-167 -57 0
-167 -34 0
-167 15 0
-167 58 0
-167 -80 0
-167 8 0
-167 53 0
-167 -97 0
167 -70 -49 57 34 -15 -58 80 -8 -53 97 0
-168 -25 0
-168 96 0
-168 -31 0
-168 -21 0
-168 29 0
-168 37 0
-168 38 0
-168 88 0
-168 -65 0
-168 23 0
168 25 -96 31 21 -29 -37 -38 -88 65 -23 0
-169 26 0
-169 37 0
-169 95 0
-169 57 0
-169 -84 0
-169 -3 0
-169 -47 0
-169 -4 0
-169 -79 0
-169 -20 0
169 -26 -37 -95 -57 84 3 47 4 79 20 0
-170 -76 0
-170 -44 0
-170 -33 0
-170 -8 0
-170 38 0
-170 -43 0
-170 -17 0
-170 -81 0
-170 -51 0
-170 -23 0
170 76 44 33 8 -38 43 17 81 51 23 0
161 162 163 164 165 166 167 168 169 170 0
-171 -68 0
-171 96 0
-171 69 0
-171 73 0
-171 -43 0
-171 -54 0
-171 -49 0
-171 -26 0
-171 -45 0
-171 67 0
171 68 -96 -69 -73 43 54 49 26 45 -67 0
-172 100 0
-172 7 0
-172 -52 0
-172 -45 0
-172 -21 0
-172 5 0
-172 64 0
-172 -32 0
-172 31 0
-172 -99 0
172 -100 -7 52 45 21 -5 -64 32 -31 99 0
-173 -98 0
-173 -29 0
-173 82 0
-173 -28 0
-173 81 0
-173 -42 0
-173 93 0
-173 89 0
-173 -70 0
-173 50 0
173 98 29 -82 28 -81 42 -93 -89 70 -50 0
-174 27 0
-174 90 0
-174 81 0
-174 55 0
-174 -92 0
-174 -66 0
-174 99 0
-174 -29 0
-174 -7 0
-174 -85 0
174 -27 -90 -81 -55 92 66 -99 29 7 85 0
-175 15 0
-175 -73 0
-175 59 0
-175 7 0
-175 -40 0
-175 61 0
-175 -68 0
-175 -8 0
-175 -67 0
-175 65 0
175 -15 73 -59 -7 40 -61 68 8 67 -65 0
-176 29 0
-176 -3 0
-176 66 0
-176 -81 0
-176 77 0
-176 52 0
-176 17 0
-176 94 0
-176 35 0
-176 4 0
176 -29 3 -66 81 -77 -52 -17 -94 -35 -4 0
-177 -13 0
-177 -27 0
-177 43 0
-177 90 0
-177 -33 0
-177 -62 0
-177 -81 0
-177 30 0
-177 -67 0
-177 37 0
177 13 27 -43 -90 33 62 81 -30 67 -37 0
-178 -47 0
-178 -39 0
-178 -82 0
-178 73 0
-178 41 0
-178 61 0
-178 74 0
-178 54 0
-178 53 0
-178 1 0
178 47 39 82 -73 -41 -61 -74 -54 -53 -1 0
-179 33 0
-179 -22 0
-179 49 0
-179 -46 0
-179 -90 0
-179 61 0
-179 -77 0
-179 91 0
-179 -69 0
-179 16 0
179 -33 22 -49 46 90 -61 77 -91 69 -16 0
-180 -67 0
-180 50 0
-180 -12 0
-180 -92 0
-180 69 0
-180 -13 0
-180 -5 0
-180 -77 0
-180 43 0
-180 52 0
180 67 -50 12 92 -69 13 5 77 -43 -52 0
171 172 173 174 175 176 177 178 179 180 0
-181 -18 0
-181 -38 0
-181 -73 0
-181 7 0
-181 -45 0
-181 -32 0
-181 10 0
-181 -31 0
-181 -39 0
-181 78 0
181 18 38 73 -7 45 32 -10 31 39 -78 0
-182 95 0
-182 -85 0
-182 87 0
-182 -26 0
-182 -80 0
-182 34 0
-182 11 0
-182 -62 0
-182 56 0
-182 -24 0
182 -95 85 -87 26 80 -34 -11 62 -56 24 0
-183 16 0
-183 30 0
-183 3 0
-183 79 0
-183 -70 0
-183 50 0
-183 -35 0
-183 -45 0
-183 -71 0
-183 -89 0
183 -16 -30 -3 -79 70 -50 35 45 71 89 0
-184 73 0
-184 87 0
-184 -93 0
-184 -21 0
-184 14 0
-184 -75 0
-184 -29 0
-184 -49 0
-184 68 0
-184 63 0
184 -73 -87 93 21 -14 75 29 49 -68 -63 0
-185 4 0
-185 28 0
-185 60 0
-185 -12 0
-185 18 0
-185 1 0
-185 -47 0
-185 -69 0
-185 -51 0
-185 -99 0
185 -4 -28 -60 12 -18 -1 47 69 51 99 0
-186 75 0
-186 23 0
-186 -69 0
-186 -43 0
-186 45 0
-186 29 0
-186 -17 0
-186 35 0
-186 -50 0
-186 -19 0
186 -75 -23 69 43 -45 -29 17 -35 50 19 0
-187 78 0
-187 67 0
-187 64 0
-187 20 0
-187 55 0
-187 -96 0
-187 -88 0
-187 -65 0
-187 18 0
-187 -46 0
187 -78 -67 -64 -20 -55 96 88 65 -18 46 0
-188 63 0
-188 69 0
-188 9 0
-188 27 0
-188 -30 0
-188 -93 0
-188 46 0
-188 -76 0
-188 32 0
-188 -39 0
188 -63 -69 -9 -27 30 93 -46 76 -32 39 0
-189 92 0
-189 -48 0
-189 16 0
-189 17 0
-189 -9 0
-189 78 0
-189 -33 0
-189 85 0
-189 39 0
-189 28 0
189 -92 48 -16 -17 9 -78 33 -85 -39 -28 0
-190 -56 0
-190 75 0
-190 -29 0
-190 38 0
-190 -30 0
-190 -16 0
-190 -81 0
-190 19 0
-190 84 0
-190 70 0
190 56 -75 29 -38 30 16 81 -19 -84 -70 0
181 182 183 184 185 186 187 188 189 190 0
-191 98 0
-191 11 0
-191 -26 0
-191 -99 0
-191 -63 0
-191 81 0
-191 84 0
-191 2 0
-191 52 0
-191 -32 0
191 -98 -11 26 99 63 -81 -84 -2 -52 32 0
-192 -32 0
-192 -74 0
-192 -87 0
-192 97 0
-192 72 0
-192 -96 0
-192 10 0
-192 -48 0
-192 95 0
-192 18 0
192 32 74 87 -97 -72 96 -10 48 -95 -18 0
-193 -95 0
-193 51 0
-193 -13 0
-193 -87 0
-193 -78 0
-193 73 0
-193 -49 0
-193 79 0
-193 99 0
-193 69 0
193 95 -51 13 87 78 -73 49 -79 -99 -69 0
-194 -71 0
-194 -64 0
-194 54 0
-194 -86 0
-194 37 0
-194 -93 0
-194 56 0
-194 -35 0
-194 -84 0
-194 28 0
194 71 64 -54 86 -37 93 -56 35 84 -28 0
-195 65 0
-195 -50 0
-195 70 0
-195 -29 0
-195 -93 0
-195 89 0
-195 98 0
-195 47 0
-195 48 0
-195 -18 0
195 -65 50 -70 29 93 -89 -98 -47 -48 18 0
-196 -57 0
-196 32 0
-196 28 0
-196 -12 0
-196 -33 0
-196 10 0
-196 20 0
-196 -5 0
-196 58 0
-196 -53 0
196 57 -32 -28 12 33 -10 -20 5 -58 53 0
-197 -77 0
-197 50 0
-197 34 0
-197 -17 0
-197 -98 0
-197 -18 0
-197 46 0
-197 -62 0
-197 93 0
-197 96 0
197 77 -50 -34 17 98 18 -46 62 -93 -96 0
-198 65 0
-198 52 0
-198 -16 0
-198 -64 0
-198 -17 0
-198 91 0
-198 -87 0
-198 -71 0
-198 -55 0
-198 -37 0
198 -65 -52 16 64 17 -91 87 71 55 37 0
-199 -22 0
-199 -100 0
-199 -73 0
-199 -41 0
-199 -33 0
-199 -79 0
-199 -99 0
-199 -59 0
-199 -42 0
-199 18 0
199 22 100 73 41 33 79 99 59 42 -18 0
-200 76 0
-200 -38 0
-200 -58 0
-200 -91 0
-200 23 0
-200 -68 0
-200 69 0
-200 -11 0
-200 -73 0
-200 74 0
200 -76 38 58 91 -23 68 -69 11 73 -74 0
191 192 193 194 195 196 197 198 199 200 0
